(set-info :source |printed by MathSAT|)

1 (6) @37:
(assert true)

6 (10) @55:
(assert true)

10 (13,12,11) @55:
(assert true)

13 () @400:
(assert true)

12 () @55:
(assert true)

11 () @401:
(assert true)

